NAME: test4
TYPE: TSP
COMMENT: 4 locations for testing
DIMENSION: 4
EDGE_WEIGHT_TYPE: EUC_2D
NODE_COORD_SECTION
1 100.0 120.0
2 297.0 200.0
3 320.0 300.0
4 400.0 450.0
5 350.0 123.0
6 209.0 45.0
EOF

